/*********************************************
 * OPL 12.6.0.0 Data
 * Author: Adrian Rodriguez Bazaga, Pau Rodriguez Esmerats
 * Creation Date: 06/12/2017 at 23:04:56
 *********************************************/

nNurses=130;
maxConsec=2;
maxPresence=7;
maxHours=5;
minHours=1;
hours=24;
demand= [24 21 29 32 21 29 32 23 20 11 3 3 4 3 5 1 2 0 2 0 14 36 23 25  ];
